
  22    4
  10   10   10   10

   0   0   0   0   0   9 2 3 4 5 8 9 11 12 13 
   4  10  10  10  10   4 17 15 10 7 
   4  10  10  10  10   2 10 6 
   2  10  10  10  10   4 21 20 19 14 
   9  10  10  10  10   4 19 17 15 14 
   4  10  10  10  10   3 21 19 15 
   3  10  10  10  10   3 20 19 14 
   3  10  10  10  10   3 19 16 15 
   8  10  10  10  10   1 10 
   4  10  10  10  10   2 19 14 
   5  10  10  10  10   2 19 16 
   7  10  10  10  10   2 19 15 
   8  10  10  10  10   2 19 14 
   8  10  10  10  10   1 18 
   7  10  10  10  10   1 18 
   1  10  10  10  10   1 18 
   3  10  10  10  10   1 18 
   1  10  10  10  10   1 22
   3  10  10  10  10   1 22
   3  10  10  10  10   1 22
   6  10  10  10  10   1 22
   0   0   0   0   0   0 
